StudentsNr = 10;
InstructorsNr = 60;
DaysNr = 2;
SlotsPerDay = 20;
AvailabilitySlotsLenght = 5;
RoomNr = 1;
ProgrammNr = 2;
DegreeNr = 1;
RolesNr = 2;
CoursesNr = 5;
InstructorsProgramm = [{2}, {1}, {1}, {1, 2}, {1}, {1, 2}, {2}, {2}, {1, 2}, {1}, {2}, {2}, {2}, {1, 2}, {1}, {2}, {1, 2}, {1}, {1}, {2}, {2}, {1, 2}, {1}, {1}, {2}, {1}, {1, 2}, {2}, {2}, {2}, {1}, {1}, {1}, {1}, {1}, {2}, {1}, {1}, {1}, {1}, {1, 2}, {1}, {1}, {2}, {1}, {2}, {2}, {1}, {1}, {1}, {2}, {2}, {1}, {1}, {2}, {2}, {1}, {2}, {1}, {1, 2}];
InstructorRolesPerProgramm = [|{4, 19, 23, 24, 26, 31, 32, 35, 37, 40, 41, 42, 48, 50, 53, 57, 59}, {2, 5, 9, 15, 17, 18, 19, 27, 31, 39, 41, 43, 49, 54, 59, 60}|{4, 8, 12, 20, 36, 41, 44, 46, 56}, {8, 9, 12, 17, 21, 27, 28, 29, 41, 46, 51, 60}|];
InstructorsAvailability = [|1, 1, 1, 1, 1, 1, 1, 1, |0, 0, 1, 1, 1, 1, 0, 0, |1, 1, 1, 1, 1, 1, 1, 1, |0, 1, 0, 1, 1, 1, 1, 1, |0, 1, 0, 0, 1, 1, 1, 0, |1, 1, 1, 1, 0, 0, 0, 0, |1, 1, 1, 0, 1, 0, 1, 0, |0, 1, 1, 1, 1, 0, 1, 1, |1, 1, 1, 1, 1, 1, 1, 1, |1, 1, 0, 1, 0, 1, 1, 1, |1, 1, 1, 1, 1, 1, 0, 1, |0, 1, 0, 0, 0, 1, 1, 1, |1, 1, 1, 1, 1, 1, 0, 0, |1, 1, 1, 1, 1, 1, 1, 1, |0, 0, 0, 0, 1, 1, 0, 1, |0, 1, 1, 1, 1, 1, 1, 1, |0, 0, 0, 0, 0, 0, 0, 0, |0, 1, 1, 0, 0, 0, 0, 1, |1, 0, 0, 1, 1, 1, 1, 1, |0, 1, 1, 1, 1, 1, 1, 1, |1, 0, 0, 0, 0, 0, 0, 0, |1, 1, 1, 1, 0, 1, 1, 1, |1, 1, 1, 1, 1, 1, 1, 1, |0, 1, 0, 0, 0, 1, 0, 0, |0, 0, 0, 0, 1, 0, 1, 1, |0, 0, 1, 0, 0, 1, 0, 1, |0, 1, 1, 1, 1, 1, 1, 1, |0, 1, 1, 1, 1, 1, 0, 0, |0, 0, 0, 1, 1, 1, 1, 1, |0, 0, 0, 1, 1, 1, 1, 1, |0, 0, 0, 0, 0, 1, 0, 0, |1, 1, 1, 1, 1, 1, 1, 1, |0, 0, 1, 1, 1, 1, 1, 1, |1, 1, 1, 1, 1, 1, 0, 1, |1, 1, 1, 1, 1, 1, 1, 1, |0, 0, 1, 1, 1, 1, 1, 1, |0, 1, 1, 0, 1, 1, 1, 0, |1, 1, 1, 1, 1, 1, 1, 1, |1, 1, 1, 1, 1, 1, 1, 1, |0, 1, 1, 1, 1, 0, 0, 1, |0, 1, 1, 1, 1, 1, 1, 0, |1, 1, 1, 1, 1, 1, 1, 1, |0, 1, 1, 1, 1, 1, 0, 1, |1, 0, 1, 0, 0, 1, 1, 0, |0, 1, 1, 0, 0, 0, 0, 1, |1, 1, 0, 1, 1, 1, 1, 1, |0, 0, 0, 1, 1, 1, 0, 1, |0, 1, 1, 1, 1, 1, 1, 1, |1, 1, 1, 1, 0, 1, 1, 1, |1, 1, 0, 1, 1, 1, 1, 1, |0, 1, 1, 0, 1, 1, 1, 1, |1, 1, 1, 1, 1, 0, 1, 1, |0, 1, 1, 0, 1, 1, 1, 1, |1, 1, 1, 1, 1, 1, 0, 1, |0, 1, 1, 1, 1, 1, 1, 1, |0, 1, 1, 1, 1, 1, 1, 1, |1, 1, 1, 0, 0, 1, 1, 1, |0, 1, 1, 0, 0, 1, 1, 1, |1, 1, 0, 1, 1, 1, 1, 1, |0, 0, 1, 1, 1, 1, 1, 0|];
StudentsProgramm = [2, 1, 1, 2, 1, 1, 2, 1, 1, 2];
StudentsDegree = [1, 1, 1, 1, 1, 1, 1, 1, 1, 1];
StudentsSupervisorId = [6, 10, 17, 41, 2, 35, 12, 6, 9, 8];
StudentsCourseIds = [{1}, {1}, {4}, {2}, {3}, {2}, {4}, {1}, {1}, {5}];
StudentsAvailability = [|0, 1, 1, 1, 1, 1, 1, 1, |1, 1, 1, 1, 1, 1, 1, 1, |1, 1, 1, 1, 1, 1, 1, 1, |1, 1, 1, 1, 1, 1, 1, 1, |0, 1, 1, 1, 1, 0, 0, 1, |1, 1, 1, 1, 1, 1, 1, 1, |1, 1, 1, 1, 1, 1, 1, 1, |1, 1, 1, 1, 1, 1, 1, 1, |1, 1, 1, 1, 1, 1, 1, 1, |0, 0, 1, 1, 1, 1, 1, 1|];
TheoryticalMinCard = [0, 1, 0, 1, 0, 0, 0, 0, 0, 1];
CoursesInstructorIds = [{5, 6, 22, 36, 38, 44, 52, 53, 57}, {50}, {2, 3, 4, 5, 6, 12, 14, 18, 24, 25, 26, 27, 29, 30, 31, 32, 33, 36, 38, 40, 41, 42, 48, 50, 52, 53, 58, 60}, {3, 5, 7, 10, 14, 15, 18, 22, 26, 28, 29, 31, 32, 33, 34, 37, 39, 41, 43, 47, 48, 49, 51, 52, 53, 54, 56, 60}, {3, 7, 10, 13, 15, 19, 22, 26, 52, 57}];
RolesDemands = [7, 4];
RolesContinuity = [];
ExamLen = [2, 2, 2, 2, 2, 2, 2, 2, 2, 2];
LunchTsMinLen = 0;
LunchStarts = [6..15, 26..31];
SupervisorAvailable = 0;
OptimalLunchLenght = [2, 0];
OptimalStartTs = [0, 1];
OptimalFinishTs = [2, 20];
MinimizeRooms = 300;
RolesSoftContinuity = [|1, 2|0, 4|];
SameDegreeInRoom = 0;
Mergeability = 2;
